start = 1;
limit = 6;
n = 14;
m=[|-1,-1,9,20,10,8,-1,18,-1,-1,-1,10,-1,-1,
|6,-1,3,-1,7,18,-1,-1,-1,-1,15,-1,1,-1,
|-1,-1,-1,10,-1,-1,10,0,6,11,-1,17,-1,-1,
|-1,-1,3,-1,14,-1,-1,16,19,-1,9,-1,-1,-1,
|1,-1,1,-1,-1,-1,-1,3,19,16,-1,14,8,7,
|18,17,-1,4,-1,-1,-1,-1,-1,15,20,15,6,-1,
|6,1,-1,0,-1,15,-1,-1,1,-1,-1,10,-1,13,
|-1,-1,-1,-1,10,-1,-1,-1,-1,-1,-1,2,-1,0,
|18,-1,-1,6,13,1,16,2,-1,-1,-1,10,-1,-1,
|-1,14,-1,-1,10,5,11,-1,17,-1,10,-1,-1,-1,
|7,11,-1,5,-1,15,-1,17,5,11,-1,-1,-1,12,
|-1,8,-1,-1,-1,14,0,-1,-1,16,20,-1,-1,-1,
|-1,12,-1,-1,-1,-1,3,6,-1,-1,-1,13,-1,-1,
|19,9,11,0,-1,15,-1,-1,-1,-1,-1,5,15,-1,
|]
;